Jobs = 10;
Machines = 5;

ProcessingTimes = [|26, 30, 1, 63, 99
                   |38, 51, 37, 64, 44
                   |89, 63, 34, 36, 26
                   |13, 64, 26, 38, 54
                   |75, 38, 69, 39, 38
                   |39, 6, 98, 91, 96
                   |77, 55, 62, 63, 64
                   |3, 6, 76, 52, 85
                   |45, 96, 20, 21, 74
                   |85, 40, 57, 27, 5|];

ReleaseDates = [196, 89, 0, 0, 0, 200, 0, 134, 157, 192];

DueDates = [-1, -1, -1, 589, 429, -1, -1, 421, 695, 410];

Weights = [3, 4, 2, 2, 5, 3, 3, 2, 5, 3];

